(set-info :source |printed by MathSAT|)
(declare-fun hhv_ULTIMATE.start_L-1_0_Int () Int)
(declare-fun .x.66 () Int)
(declare-fun hbv_ULTIMATE.start_ULTIMATE.startENTRY_1_Array_Int_Int () (Array Int Int))
(declare-fun .x.67 () (Array Int Int))
(declare-fun hhv_ULTIMATE.start_L-1_2_Array_Int_Int () (Array Int Int))
(declare-fun .x.68 () (Array Int Int))
(declare-fun hhv_ULTIMATE.start_L-1_3_Array_Int_Array_Int_Int () (Array Int (Array Int Int)))
(declare-fun .x.69 () (Array Int (Array Int Int)))
(declare-fun hhv_ULTIMATE.start_L-1_4_Array_Int_Array_Int_Int () (Array Int (Array Int Int)))
(declare-fun .x.70 () (Array Int (Array Int Int)))
(declare-fun hbv_ULTIMATE.start_ULTIMATE.startENTRY_5_Int () Int)
(declare-fun .x.71 () Int)
(declare-fun hhv_ULTIMATE.start_L-1_6_Int () Int)
(declare-fun .x.72 () Int)
(declare-fun hhv_ULTIMATE.start_L-1_7_Array_Int_Int () (Array Int Int))
(declare-fun .x.73 () (Array Int Int))
(declare-fun hhv_ULTIMATE.start_L-1_8_Array_Int_Int () (Array Int Int))
(declare-fun .x.74 () (Array Int Int))
(declare-fun hbv_ULTIMATE.start_ULTIMATE.startENTRY_9_Int () Int)
(declare-fun .x.75 () Int)
(declare-fun hhv_ULTIMATE.start_L-1_10_Int () Int)
(declare-fun .x.76 () Int)
(declare-fun hhv_ULTIMATE.start_L-1_11_Int () Int)
(declare-fun .x.77 () Int)
(declare-fun hhv_ULTIMATE.start_L-1_12_Int () Int)
(declare-fun .x.78 () Int)
(declare-fun hhv_ULTIMATE.start_L-1_13_Int () Int)
(declare-fun .x.79 () Int)
(declare-fun hhv_ULTIMATE.start_L-1_14_Int () Int)
(declare-fun .x.80 () Int)
(declare-fun hhv_ULTIMATE.start_L-1_15_Int () Int)
(declare-fun .x.81 () Int)
(declare-fun hhv_ULTIMATE.start_L-1_16_Int () Int)
(declare-fun .x.82 () Int)
(declare-fun hhv_ULTIMATE.start_L-1_17_Int () Int)
(declare-fun .x.83 () Int)
(declare-fun hhv_ULTIMATE.start_L-1_18_Int () Int)
(declare-fun .x.84 () Int)
(declare-fun hhv_ULTIMATE.start_L-1_19_Bool () Bool)
(declare-fun hhv_ULTIMATE.start_ULTIMATE.startEXIT_19_Bool () Bool)
(declare-fun .loc.3 () Bool)
(declare-fun .loc.5 () Bool)
(declare-fun .loc.4 () Bool)
(declare-fun .loc.6 () Bool)
(declare-fun hbv_ULTIMATE.start_L-1_1_Array_Int_Int () (Array Int Int))
(declare-fun hbv_ULTIMATE.start_L22_16_Int () Int)
(define-fun .def_8 () Int (! hhv_ULTIMATE.start_L-1_0_Int :next |.x.66|))
(define-fun .def_10 () (Array Int Int) (! hbv_ULTIMATE.start_ULTIMATE.startENTRY_1_Array_Int_Int :next |.x.67|))
(define-fun .def_12 () (Array Int Int) (! hhv_ULTIMATE.start_L-1_2_Array_Int_Int :next |.x.68|))
(define-fun .def_14 () (Array Int (Array Int Int)) (! hhv_ULTIMATE.start_L-1_3_Array_Int_Array_Int_Int :next |.x.69|))
(define-fun .def_16 () (Array Int (Array Int Int)) (! hhv_ULTIMATE.start_L-1_4_Array_Int_Array_Int_Int :next |.x.70|))
(define-fun .def_18 () Int (! hbv_ULTIMATE.start_ULTIMATE.startENTRY_5_Int :next |.x.71|))
(define-fun .def_20 () Int (! hhv_ULTIMATE.start_L-1_6_Int :next |.x.72|))
(define-fun .def_22 () (Array Int Int) (! hhv_ULTIMATE.start_L-1_7_Array_Int_Int :next |.x.73|))
(define-fun .def_24 () (Array Int Int) (! hhv_ULTIMATE.start_L-1_8_Array_Int_Int :next |.x.74|))
(define-fun .def_26 () Int (! hbv_ULTIMATE.start_ULTIMATE.startENTRY_9_Int :next |.x.75|))
(define-fun .def_28 () Int (! hhv_ULTIMATE.start_L-1_10_Int :next |.x.76|))
(define-fun .def_30 () Int (! hhv_ULTIMATE.start_L-1_11_Int :next |.x.77|))
(define-fun .def_32 () Int (! hhv_ULTIMATE.start_L-1_12_Int :next |.x.78|))
(define-fun .def_34 () Int (! hhv_ULTIMATE.start_L-1_13_Int :next |.x.79|))
(define-fun .def_36 () Int (! hhv_ULTIMATE.start_L-1_14_Int :next |.x.80|))
(define-fun .def_38 () Int (! hhv_ULTIMATE.start_L-1_15_Int :next |.x.81|))
(define-fun .def_40 () Int (! hhv_ULTIMATE.start_L-1_16_Int :next |.x.82|))
(define-fun .def_42 () Int (! hhv_ULTIMATE.start_L-1_17_Int :next |.x.83|))
(define-fun .def_44 () Int (! hhv_ULTIMATE.start_L-1_18_Int :next |.x.84|))
(define-fun .def_46 () Bool (! hhv_ULTIMATE.start_L-1_19_Bool :next |hhv_ULTIMATE.start_ULTIMATE.startEXIT_19_Bool|))
(define-fun .def_48 () Bool (! .loc.3 :next |.loc.5|))
(define-fun .def_50 () Bool (! .loc.4 :next |.loc.6|))
(define-fun .def_58 () (Array Int Int) (! hbv_ULTIMATE.start_L-1_1_Array_Int_Int :next |.xtv.1|))
(define-fun .def_76 () Int (! hbv_ULTIMATE.start_L22_16_Int :next |.xtv.2|))
(define-fun .def_170 () Bool (not .def_50))
(define-fun .def_65 () Bool (not .def_48))
(define-fun .def_184 () Bool (and .def_65 .def_170))
(define-fun .def_178 () Bool (= .def_10 .def_12))
(define-fun .def_177 () Bool (not .def_46))
(define-fun .def_179 () Bool (and .def_177 .def_178))
(define-fun .def_176 () Bool (= .def_22 .def_24))
(define-fun .def_180 () Bool (and .def_176 .def_179))
(define-fun .def_175 () Bool (= .def_18 .def_20))
(define-fun .def_181 () Bool (and .def_175 .def_180))
(define-fun .def_174 () Bool (= .def_14 .def_16))
(define-fun .def_182 () Bool (and .def_174 .def_181))
(define-fun .def_173 () Bool (= .def_26 .def_28))
(define-fun .def_183 () Bool (and .def_173 .def_182))
(define-fun .def_185 () Bool (! (and .def_183 .def_184) :init true))
(define-fun .def_168 () Bool (= .def_28 .x.76))
(define-fun .def_166 () Bool (= .def_24 .x.74))
(define-fun .def_164 () Bool (= .def_20 .x.72))
(define-fun .def_162 () Bool (= .def_16 .x.70))
(define-fun .def_160 () Bool (= .def_8 .x.66))
(define-fun .def_159 () Bool (= .def_12 .x.68))
(define-fun .def_161 () Bool (and .def_159 .def_160))
(define-fun .def_163 () Bool (and .def_161 .def_162))
(define-fun .def_165 () Bool (and .def_163 .def_164))
(define-fun .def_167 () Bool (and .def_165 .def_166))
(define-fun .def_169 () Bool (and .def_167 .def_168))
(define-fun .def_171 () Bool (and .def_169 .def_170))
(define-fun .def_154 () Bool (not .loc.5))
(define-fun .def_155 () Bool (and .loc.6 .def_154))
(define-fun .def_77 () Bool (= .def_76 0))
(define-fun .def_149 () Bool (not .def_77))
(define-fun .def_150 () Bool (or .def_46 .def_149))
(define-fun .def_113 () (Array Int Int) (select .x.69 .x.81))
(define-fun .def_114 () Int (select .def_113 .x.84))
(define-fun .def_115 () Bool (= .def_76 .def_114))
(define-fun .def_81 () (Array Int Int) (select .def_14 .x.79))
(define-fun .def_82 () Int (select .def_81 .x.78))
(define-fun .def_111 () Bool (= .def_82 4))
(define-fun .def_108 () (Array Int Int) (store .def_22 .x.79 4))
(define-fun .def_109 () Bool (= .x.73 .def_108))
(define-fun .def_105 () Bool (= .x.79 .x.81))
(define-fun .def_103 () Bool (= .x.78 .x.84))
(define-fun .def_101 () Bool (= .x.78 0))
(define-fun .def_98 () Bool (<= .x.66 .x.79))
(define-fun .def_99 () Bool (not .def_98))
(define-fun .def_93 () Bool (= .x.79 0))
(define-fun .def_94 () Bool (not .def_93))
(define-fun .def_91 () Int (select .def_58 .x.79))
(define-fun .def_92 () Bool (= .def_91 0))
(define-fun .def_95 () Bool (and .def_92 .def_94))
(define-fun .def_89 () (Array Int Int) (store .def_58 .x.79 1))
(define-fun .def_90 () Bool (= .x.67 .def_89))
(define-fun .def_96 () Bool (and .def_90 .def_95))
(define-fun .def_84 () Int (+ .def_82 (- 4)))
(define-fun .def_85 () (Array Int Int) (store .def_81 .x.78 .def_84))
(define-fun .def_86 () (Array Int (Array Int Int)) (store .def_14 .x.79 .def_85))
(define-fun .def_87 () Bool (= .x.69 .def_86))
(define-fun .def_97 () Bool (and .def_87 .def_96))
(define-fun .def_100 () Bool (and .def_97 .def_99))
(define-fun .def_102 () Bool (and .def_100 .def_101))
(define-fun .def_104 () Bool (and .def_102 .def_103))
(define-fun .def_106 () Bool (and .def_104 .def_105))
(define-fun .def_110 () Bool (and .def_106 .def_109))
(define-fun .def_112 () Bool (and .def_110 .def_111))
(define-fun .def_116 () Bool (and .def_112 .def_115))
(define-fun .def_147 () Bool (or .def_46 .def_116))
(define-fun .def_57 () (Array Int Int) (store .def_10 0 0))
(define-fun .def_59 () Bool (= .def_57 .def_58))
(define-fun .def_55 () Bool (= .x.75 0))
(define-fun .def_54 () Bool (= .x.71 0))
(define-fun .def_56 () Bool (and .def_54 .def_55))
(define-fun .def_60 () Bool (and .def_56 .def_59))
(define-fun .def_61 () Bool (or .def_46 .def_60))
(define-fun .def_145 () Bool (and hhv_ULTIMATE.start_ULTIMATE.startEXIT_19_Bool .def_61))
(define-fun .def_63 () Bool (= .def_30 .x.77))
(define-fun .def_146 () Bool (and .def_63 .def_145))
(define-fun .def_148 () Bool (and .def_146 .def_147))
(define-fun .def_151 () Bool (and .def_148 .def_150))
(define-fun .def_152 () Bool (and .def_65 .def_151))
(define-fun .def_141 () Bool (= .x.80 0))
(define-fun .def_139 () (Array Int Int) (store .def_10 .def_34 0))
(define-fun .def_140 () Bool (= .x.67 .def_139))
(define-fun .def_142 () Bool (and .def_140 .def_141))
(define-fun .def_143 () Bool (or .def_46 .def_142))
(define-fun .def_137 () Bool (= .def_14 .x.69))
(define-fun .def_135 () Bool (= .def_18 .x.71))
(define-fun .def_133 () Bool (= .def_22 .x.73))
(define-fun .def_131 () Bool (= .def_26 .x.75))
(define-fun .def_129 () Bool (= .def_38 .x.81))
(define-fun .def_127 () Bool (= .def_40 .x.82))
(define-fun .def_125 () Bool (= .def_42 .x.83))
(define-fun .def_123 () Bool (= .def_44 .x.84))
(define-fun .def_119 () Bool (= .x.77 .x.80))
(define-fun .def_120 () Bool (or hhv_ULTIMATE.start_ULTIMATE.startEXIT_19_Bool .def_119))
(define-fun .def_121 () Bool (and .def_48 .def_120))
(define-fun .def_73 () Bool (= .def_46 hhv_ULTIMATE.start_ULTIMATE.startEXIT_19_Bool))
(define-fun .def_122 () Bool (and .def_73 .def_121))
(define-fun .def_124 () Bool (and .def_122 .def_123))
(define-fun .def_126 () Bool (and .def_124 .def_125))
(define-fun .def_128 () Bool (and .def_126 .def_127))
(define-fun .def_130 () Bool (and .def_128 .def_129))
(define-fun .def_132 () Bool (and .def_130 .def_131))
(define-fun .def_134 () Bool (and .def_132 .def_133))
(define-fun .def_136 () Bool (and .def_134 .def_135))
(define-fun .def_138 () Bool (and .def_136 .def_137))
(define-fun .def_144 () Bool (and .def_138 .def_143))
(define-fun .def_153 () Bool (or .def_144 .def_152))
(define-fun .def_156 () Bool (and .def_153 .def_155))
(define-fun .def_117 () Bool (or hhv_ULTIMATE.start_ULTIMATE.startEXIT_19_Bool .def_116))
(define-fun .def_78 () Bool (or hhv_ULTIMATE.start_ULTIMATE.startEXIT_19_Bool .def_77))
(define-fun .def_70 () Bool (and .def_61 .def_63))
(define-fun .def_71 () Bool (and .def_65 .def_70))
(define-fun .def_72 () Bool (and .loc.5 .def_71))
(define-fun .def_74 () Bool (and .def_72 .def_73))
(define-fun .def_68 () Bool (not .loc.6))
(define-fun .def_75 () Bool (and .def_68 .def_74))
(define-fun .def_79 () Bool (and .def_75 .def_78))
(define-fun .def_118 () Bool (and .def_79 .def_117))
(define-fun .def_157 () Bool (or .def_118 .def_156))
(define-fun .def_52 () Bool (and .def_46 hhv_ULTIMATE.start_ULTIMATE.startEXIT_19_Bool))
(define-fun .def_62 () Bool (and .def_52 .def_61))
(define-fun .def_64 () Bool (and .def_62 .def_63))
(define-fun .def_66 () Bool (and .def_64 .def_65))
(define-fun .def_67 () Bool (and .loc.5 .def_66))
(define-fun .def_69 () Bool (and .def_67 .def_68))
(define-fun .def_158 () Bool (or .def_69 .def_157))
(define-fun .def_172 () Bool (! (and .def_158 .def_171) :trans true))
(define-fun .def_186 () Bool (and .def_50 .def_65))
(define-fun .def_187 () Bool (and .def_46 .def_186))
(define-fun .def_188 () Bool (! (not .def_187) :invar-property 0))
(assert true)
